Welcome to the CBC MILP Solver 
Version: 2.10.7 
Build Date: Feb 14 2022 

command line - cbc inputs/new_no_tr/order/jump_3_25_tiers_input.lp sec 1800 solve solu solutions/new_no_tr/jump_3_25_tiers_input.lp (default strategy 1)
seconds was changed from 1e+100 to 1800
Continuous objective value is 27648 - 0.06 seconds
Cgl0002I 61 variables fixed
Cgl0003I 0 fixed, 3 tightened bounds, 273 strengthened rows, 0 substitutions
Cgl0003I 0 fixed, 1 tightened bounds, 6 strengthened rows, 0 substitutions
Cgl0004I processed model has 1808 rows, 620 columns (620 integer (594 of which binary)) and 6021 elements
Cutoff increment increased from 1e-05 to 0.9999
Cbc0045I 1 integer variables out of 620 objects (620 integer) have cost of 1 - high priority
Cbc0045I branch on satisfied Y create fake objective Y random cost Y
Cbc0038I Initial state - 336 integers unsatisfied sum - 130.808
Cbc0038I Pass   1: suminf.   34.55203 (165) obj. 43784.9 iterations 705
Cbc0038I Pass   2: suminf.   23.88599 (141) obj. 47292.1 iterations 457
Cbc0038I Pass   3: suminf.   22.60109 (154) obj. 47816.4 iterations 108
Cbc0038I Pass   4: suminf.   17.68360 (128) obj. 52038.7 iterations 406
Cbc0038I Pass   5: suminf.   17.68360 (128) obj. 52038.7 iterations 3
Cbc0038I Pass   6: suminf.   12.10370 (92) obj. 55228.1 iterations 255
Cbc0038I Pass   7: suminf.    9.10424 (89) obj. 54272 iterations 84
Cbc0038I Pass   8: suminf.    2.72801 (51) obj. 54272 iterations 154
Cbc0038I Pass   9: suminf.    2.29798 (38) obj. 54272 iterations 49
Cbc0038I Pass  10: suminf.    2.99044 (26) obj. 54272 iterations 566
Cbc0038I Pass  11: suminf.    2.99044 (26) obj. 54272 iterations 10
Cbc0038I Pass  12: suminf.    3.08366 (17) obj. 54272 iterations 169
Cbc0038I Pass  13: suminf.    1.88135 (9) obj. 54272 iterations 117
Cbc0038I Pass  14: suminf.    0.00000 (0) obj. 54272 iterations 17
Cbc0038I Solution found of 54272
Cbc0038I Cleaned solution of 54272
Cbc0038I Before mini branch and bound, 189 integers at bound fixed and 0 continuous
Cbc0038I Full problem 1808 rows 620 columns, reduced to 1426 rows 431 columns - 63 fixed gives 791, 231 - ok now
Cbc0038I Mini branch and bound did not improve solution (0.53 seconds)
Cbc0038I Round again with cutoff of 51608.7
Cbc0038I Pass  15: suminf.   34.55203 (165) obj. 43784.9 iterations 0
Cbc0038I Pass  16: suminf.   23.88599 (141) obj. 47292.1 iterations 360
Cbc0038I Pass  17: suminf.   22.60109 (154) obj. 47816.4 iterations 62
Cbc0038I Pass  18: suminf.   21.11428 (141) obj. 51265.4 iterations 380
Cbc0038I Pass  19: suminf.   15.18157 (149) obj. 51608.7 iterations 218
Cbc0038I Pass  20: suminf.   13.39439 (130) obj. 51608.7 iterations 173
Cbc0038I Pass  21: suminf.   11.20145 (84) obj. 51608.7 iterations 225
Cbc0038I Pass  22: suminf.   10.89330 (92) obj. 51608.7 iterations 20
Cbc0038I Pass  23: suminf.    9.05549 (109) obj. 51608.7 iterations 235
Cbc0038I Pass  24: suminf.    7.73897 (95) obj. 51608.7 iterations 96
Cbc0038I Pass  25: suminf.    7.67979 (76) obj. 51608.7 iterations 276
Cbc0038I Pass  26: suminf.    5.55432 (79) obj. 51608.7 iterations 42
Cbc0038I Pass  27: suminf.    4.41324 (80) obj. 51608.7 iterations 27
Cbc0038I Pass  28: suminf.    3.38902 (47) obj. 51608.7 iterations 504
Cbc0038I Pass  29: suminf.    3.36103 (62) obj. 51608.7 iterations 270
Cbc0038I Pass  30: suminf.    3.34060 (62) obj. 51608.7 iterations 55
Cbc0038I Pass  31: suminf.    3.05099 (49) obj. 51608.7 iterations 349
Cbc0038I Pass  32: suminf.    1.70805 (11) obj. 51608.7 iterations 116
Cbc0038I Pass  33: suminf.    0.29991 (1) obj. 51608.7 iterations 31
Cbc0038I Solution found of 51608.7
Cbc0038I Branch and bound needed to clear up 1 general integers
Cbc0038I Full problem 1809 rows 620 columns, reduced to 0 rows 0 columns
Cbc0038I Cleaned solution of 50176
Cbc0038I Before mini branch and bound, 170 integers at bound fixed and 0 continuous
Cbc0038I Full problem 1808 rows 620 columns, reduced to 1467 rows 450 columns - 212 fixed gives 321, 84 - ok now
Cbc0038I Full problem 1808 rows 620 columns, reduced to 30 rows 12 columns
Cbc0038I Mini branch and bound did not improve solution (0.89 seconds)
Cbc0038I Round again with cutoff of 45669.6
Cbc0038I Pass  34: suminf.   34.55203 (165) obj. 43784.9 iterations 0
Cbc0038I Pass  35: suminf.   25.22332 (137) obj. 45669.6 iterations 491
Cbc0038I Pass  36: suminf.   23.42936 (152) obj. 45669.6 iterations 82
Cbc0038I Pass  37: suminf.   14.98487 (122) obj. 45669.6 iterations 439
Cbc0038I Pass  38: suminf.   12.89516 (121) obj. 45669.6 iterations 137
Cbc0038I Pass  39: suminf.   14.93756 (119) obj. 45669.6 iterations 281
Cbc0038I Pass  40: suminf.   13.25747 (123) obj. 45669.6 iterations 147
Cbc0038I Pass  41: suminf.   12.85339 (117) obj. 45669.6 iterations 75
Cbc0038I Pass  42: suminf.   10.94647 (96) obj. 45669.6 iterations 443
Cbc0038I Pass  43: suminf.    8.11798 (108) obj. 45669.6 iterations 150
Cbc0038I Pass  44: suminf.   10.76345 (101) obj. 45669.6 iterations 209
Cbc0038I Pass  45: suminf.    8.20098 (102) obj. 45669.6 iterations 256
Cbc0038I Pass  46: suminf.   14.36387 (83) obj. 45669.6 iterations 304
Cbc0038I Pass  47: suminf.    8.81265 (100) obj. 45669.6 iterations 481
Cbc0038I Pass  48: suminf.   10.45255 (72) obj. 45669.6 iterations 219
Cbc0038I Pass  49: suminf.    9.21350 (74) obj. 45669.6 iterations 44
Cbc0038I Pass  50: suminf.    6.86845 (71) obj. 45669.6 iterations 87
Cbc0038I Pass  51: suminf.   14.64535 (109) obj. 45669.6 iterations 285
Cbc0038I Pass  52: suminf.    5.21085 (69) obj. 45669.6 iterations 250
Cbc0038I Pass  53: suminf.    5.02787 (54) obj. 45669.6 iterations 85
Cbc0038I Pass  54: suminf.    4.83658 (28) obj. 45669.6 iterations 164
Cbc0038I Pass  55: suminf.    4.41324 (41) obj. 45669.6 iterations 98
Cbc0038I Pass  56: suminf.    4.41324 (41) obj. 45669.6 iterations 14
Cbc0038I Pass  57: suminf.    4.42684 (41) obj. 45669.6 iterations 57
Cbc0038I Pass  58: suminf.   51.74574 (227) obj. 45669.6 iterations 592
Cbc0038I Pass  59: suminf.   27.32537 (172) obj. 45669.6 iterations 304
Cbc0038I Pass  60: suminf.   22.94624 (154) obj. 45669.6 iterations 161
Cbc0038I Pass  61: suminf.   23.06041 (157) obj. 45669.6 iterations 20
Cbc0038I Pass  62: suminf.   13.03768 (105) obj. 45669.6 iterations 349
Cbc0038I Pass  63: suminf.   13.03768 (105) obj. 45669.6 iterations 4
Cbc0038I Pass  64: suminf.   12.78786 (138) obj. 45669.6 iterations 266
Cbc0038I Pass  65: suminf.   12.00635 (150) obj. 45669.6 iterations 56
Cbc0038I Pass  66: suminf.    8.93813 (86) obj. 45669.6 iterations 325
Cbc0038I Pass  67: suminf.    6.82621 (80) obj. 45669.6 iterations 54
Cbc0038I Pass  68: suminf.    6.75811 (81) obj. 45669.6 iterations 50
Cbc0038I Pass  69: suminf.    5.34964 (57) obj. 45669.6 iterations 274
Cbc0038I Pass  70: suminf.    5.24594 (37) obj. 45669.6 iterations 35
Cbc0038I Pass  71: suminf.    4.84912 (42) obj. 45669.6 iterations 175
Cbc0038I Pass  72: suminf.    3.77500 (30) obj. 45669.6 iterations 11
Cbc0038I Pass  73: suminf.    5.98320 (29) obj. 45669.6 iterations 168
Cbc0038I Pass  74: suminf.    6.01618 (28) obj. 45669.6 iterations 54
Cbc0038I Pass  75: suminf.    4.00136 (33) obj. 45669.6 iterations 330
Cbc0038I Pass  76: suminf.    4.00136 (33) obj. 45669.6 iterations 2
Cbc0038I Pass  77: suminf.    4.33913 (34) obj. 45669.6 iterations 139
Cbc0038I Pass  78: suminf.    4.20939 (37) obj. 45669.6 iterations 86
Cbc0038I Pass  79: suminf.    2.80096 (29) obj. 45669.6 iterations 112
Cbc0038I Pass  80: suminf.    2.72032 (26) obj. 45669.6 iterations 114
Cbc0038I Pass  81: suminf.    6.30189 (34) obj. 45669.6 iterations 125
Cbc0038I Pass  82: suminf.    6.30189 (34) obj. 45669.6 iterations 7
Cbc0038I Pass  83: suminf.    3.84619 (24) obj. 45669.6 iterations 137
Cbc0038I Pass  84: suminf.    3.88374 (27) obj. 45669.6 iterations 35
Cbc0038I Pass  85: suminf.    9.67925 (33) obj. 45669.6 iterations 161
Cbc0038I Pass  86: suminf.    7.12948 (30) obj. 45669.6 iterations 104
Cbc0038I Pass  87: suminf.    5.97643 (28) obj. 45669.6 iterations 11
Cbc0038I Pass  88: suminf.    7.15748 (67) obj. 45669.6 iterations 437
Cbc0038I Pass  89: suminf.    4.16623 (23) obj. 45669.6 iterations 137
Cbc0038I Pass  90: suminf.    3.73325 (11) obj. 45669.6 iterations 151
Cbc0038I Pass  91: suminf.    3.73325 (11) obj. 45669.6 iterations 104
Cbc0038I Pass  92: suminf.    3.76240 (32) obj. 45669.6 iterations 155
Cbc0038I Pass  93: suminf.    5.97355 (25) obj. 45669.6 iterations 165
Cbc0038I Pass  94: suminf.   40.82372 (242) obj. 45669.6 iterations 787
Cbc0038I Pass  95: suminf.   23.30544 (146) obj. 45669.6 iterations 555
Cbc0038I Pass  96: suminf.   20.01862 (123) obj. 45669.6 iterations 111
Cbc0038I Pass  97: suminf.   20.19360 (122) obj. 45669.6 iterations 68
Cbc0038I Pass  98: suminf.   20.17232 (121) obj. 45669.6 iterations 5
Cbc0038I Pass  99: suminf.   14.84981 (102) obj. 45669.6 iterations 106
Cbc0038I Pass 100: suminf.   15.01780 (106) obj. 45669.6 iterations 15
Cbc0038I Pass 101: suminf.   12.42442 (114) obj. 45669.6 iterations 136
Cbc0038I Pass 102: suminf.    9.35085 (95) obj. 45669.6 iterations 174
Cbc0038I Pass 103: suminf.    8.18138 (96) obj. 45669.6 iterations 81
Cbc0038I Pass 104: suminf.    1.56376 (35) obj. 45669.6 iterations 193
Cbc0038I Pass 105: suminf.    8.05311 (46) obj. 45669.6 iterations 113
Cbc0038I Pass 106: suminf.    7.41546 (46) obj. 45669.6 iterations 82
Cbc0038I Pass 107: suminf.    4.37971 (46) obj. 45669.6 iterations 98
Cbc0038I Pass 108: suminf.    4.37971 (46) obj. 45669.6 iterations 18
Cbc0038I Pass 109: suminf.    1.13303 (26) obj. 45669.6 iterations 147
Cbc0038I Pass 110: suminf.    1.02972 (12) obj. 45669.6 iterations 73
Cbc0038I Pass 111: suminf.    3.86251 (38) obj. 45669.6 iterations 137
Cbc0038I Pass 112: suminf.    6.77461 (47) obj. 45669.6 iterations 183
Cbc0038I Pass 113: suminf.    5.84369 (41) obj. 45669.6 iterations 79
Cbc0038I Pass 114: suminf.    2.34569 (30) obj. 45669.6 iterations 108
Cbc0038I Pass 115: suminf.    1.97972 (26) obj. 45669.6 iterations 71
Cbc0038I Pass 116: suminf.    3.92287 (24) obj. 45669.6 iterations 112
Cbc0038I Pass 117: suminf.    3.75892 (25) obj. 45669.6 iterations 53
Cbc0038I Pass 118: suminf.    3.75892 (25) obj. 45669.6 iterations 13
Cbc0038I Pass 119: suminf.    4.57702 (26) obj. 45669.6 iterations 89
Cbc0038I Pass 120: suminf.    3.81074 (25) obj. 45669.6 iterations 53
Cbc0038I Pass 121: suminf.    3.88813 (28) obj. 45669.6 iterations 50
Cbc0038I Pass 122: suminf.    7.07619 (38) obj. 45669.6 iterations 162
Cbc0038I Pass 123: suminf.    6.83553 (36) obj. 45669.6 iterations 42
Cbc0038I Pass 124: suminf.    6.15766 (66) obj. 45669.6 iterations 99
Cbc0038I Pass 125: suminf.    5.24999 (28) obj. 45669.6 iterations 28
Cbc0038I Pass 126: suminf.    6.29793 (28) obj. 45669.6 iterations 161
Cbc0038I Pass 127: suminf.    5.14854 (28) obj. 45669.6 iterations 34
Cbc0038I Pass 128: suminf.    5.92613 (37) obj. 45669.6 iterations 130
Cbc0038I Pass 129: suminf.    5.62520 (63) obj. 45669.6 iterations 52
Cbc0038I Pass 130: suminf.    2.05553 (17) obj. 45669.6 iterations 210
Cbc0038I Pass 131: suminf.    2.05553 (17) obj. 45669.6 iterations 12
Cbc0038I Pass 132: suminf.    2.74210 (12) obj. 45669.6 iterations 171
Cbc0038I Pass 133: suminf.   50.48661 (210) obj. 45669.6 iterations 792
Cbc0038I No solution found this major pass
Cbc0038I Before mini branch and bound, 43 integers at bound fixed and 0 continuous
Cbc0038I Full problem 1808 rows 620 columns, reduced to 1722 rows 577 columns - 214 fixed gives 569, 170 - ok now
Cbc0038I Full problem 1808 rows 620 columns, reduced to 80 rows 29 columns
Cbc0038I Mini branch and bound did not improve solution (2.18 seconds)
Cbc0038I After 2.18 seconds - Feasibility pump exiting with objective of 50176 - took 2.06 seconds
Cbc0012I Integer solution of 50176 found by feasibility pump after 0 iterations and 0 nodes (2.18 seconds)
Cbc0038I Full problem 1808 rows 620 columns, reduced to 1299 rows 369 columns - 209 fixed gives 40, 9 - ok now
Cbc0031I 65 added rows had average density of 18.861538
Cbc0013I At root node, 65 cuts changed objective from 27648 to 27648 in 10 passes
Cbc0014I Cut generator 0 (Probing) - 63 row cuts average 2.7 elements, 2 column cuts (2 active)  in 0.037 seconds - new frequency is -100
Cbc0014I Cut generator 1 (Gomory) - 180 row cuts average 472.5 elements, 0 column cuts (0 active)  in 0.150 seconds - new frequency is -100
Cbc0014I Cut generator 2 (Knapsack) - 0 row cuts average 0.0 elements, 0 column cuts (0 active)  in 0.007 seconds - new frequency is -100
Cbc0014I Cut generator 3 (Clique) - 0 row cuts average 0.0 elements, 0 column cuts (0 active)  in 0.005 seconds - new frequency is -100
Cbc0014I Cut generator 4 (MixedIntegerRounding2) - 0 row cuts average 0.0 elements, 0 column cuts (0 active)  in 0.008 seconds - new frequency is -100
Cbc0014I Cut generator 5 (FlowCover) - 0 row cuts average 0.0 elements, 0 column cuts (0 active)  in 0.006 seconds - new frequency is -100
Cbc0014I Cut generator 6 (TwoMirCuts) - 120 row cuts average 121.3 elements, 0 column cuts (0 active)  in 0.121 seconds - new frequency is -100
Cbc0010I After 0 nodes, 1 on tree, 50176 best solution, best possible 27648 (5.39 seconds)
Cbc0038I Full problem 1808 rows 620 columns, reduced to 1371 rows 405 columns - 205 fixed gives 117, 31 - ok now
Cbc0038I Full problem 1808 rows 620 columns, reduced to 1373 rows 406 columns - 205 fixed gives 120, 32 - ok now
Cbc0010I After 100 nodes, 1 on tree, 50176 best solution, best possible 27674 (24.24 seconds)
Cbc0038I Full problem 1808 rows 620 columns, reduced to 1371 rows 405 columns - 205 fixed gives 120, 32 - ok now
Cbc0010I After 200 nodes, 1 on tree, 50176 best solution, best possible 27717 (34.33 seconds)
Cbc0038I Full problem 1808 rows 620 columns, reduced to 1369 rows 404 columns - 205 fixed gives 120, 32 - ok now
Cbc0010I After 300 nodes, 1 on tree, 50176 best solution, best possible 27765 (43.95 seconds)
Cbc0038I Full problem 1808 rows 620 columns, reduced to 1367 rows 403 columns - 205 fixed gives 120, 32 - ok now
Cbc0010I After 400 nodes, 1 on tree, 50176 best solution, best possible 27809 (56.21 seconds)
Cbc0038I Full problem 1808 rows 620 columns, reduced to 1365 rows 402 columns - 205 fixed gives 106, 30 - ok now
Cbc0010I After 500 nodes, 1 on tree, 50176 best solution, best possible 27853 (68.43 seconds)
Cbc0010I After 600 nodes, 3 on tree, 50176 best solution, best possible 27880 (80.95 seconds)
Cbc0038I Full problem 1808 rows 620 columns, reduced to 1366 rows 402 columns - 205 fixed gives 106, 30 - ok now
Cbc0010I After 700 nodes, 5 on tree, 50176 best solution, best possible 27880 (95.17 seconds)
Cbc0038I Full problem 1808 rows 620 columns, reduced to 1366 rows 402 columns - 205 fixed gives 106, 30 - ok now
Cbc0010I After 800 nodes, 6 on tree, 50176 best solution, best possible 27880 (109.03 seconds)
Cbc0010I After 900 nodes, 16 on tree, 50176 best solution, best possible 27880 (123.34 seconds)
Cbc0010I After 1000 nodes, 23 on tree, 50176 best solution, best possible 27880 (137.76 seconds)
Cbc0038I Full problem 1808 rows 620 columns, reduced to 1334 rows 390 columns - 198 fixed gives 82, 20 - ok now
Cbc0010I After 1100 nodes, 18 on tree, 50176 best solution, best possible 27880 (150.09 seconds)
Cbc0038I Full problem 1808 rows 620 columns, reduced to 1336 rows 399 columns - 194 fixed gives 145, 37 - ok now
Cbc0010I After 1200 nodes, 27 on tree, 50176 best solution, best possible 27880 (163.96 seconds)
Cbc0010I After 1300 nodes, 23 on tree, 50176 best solution, best possible 27880 (176.81 seconds)
Cbc0010I After 1400 nodes, 17 on tree, 50176 best solution, best possible 27880 (187.46 seconds)
Cbc0010I After 1500 nodes, 17 on tree, 50176 best solution, best possible 27880 (195.36 seconds)
Cbc0010I After 1600 nodes, 17 on tree, 50176 best solution, best possible 27880 (203.31 seconds)
Cbc0010I After 1700 nodes, 17 on tree, 50176 best solution, best possible 27880 (211.84 seconds)
Cbc0038I Full problem 1808 rows 620 columns, reduced to 1349 rows 395 columns - 204 fixed gives 82, 21 - ok now
Cbc0010I After 1800 nodes, 17 on tree, 50176 best solution, best possible 27880 (220.53 seconds)
Cbc0010I After 1900 nodes, 17 on tree, 50176 best solution, best possible 27880 (228.57 seconds)
Cbc0010I After 2000 nodes, 17 on tree, 50176 best solution, best possible 27880 (236.64 seconds)
Cbc0010I After 2100 nodes, 17 on tree, 50176 best solution, best possible 27880 (245.50 seconds)
Cbc0010I After 2200 nodes, 17 on tree, 50176 best solution, best possible 27880 (253.18 seconds)
Cbc0010I After 2300 nodes, 17 on tree, 50176 best solution, best possible 27880 (261.14 seconds)
Cbc0038I Full problem 1808 rows 620 columns, reduced to 1341 rows 391 columns - 203 fixed gives 79, 20 - ok now
Cbc0010I After 2400 nodes, 17 on tree, 50176 best solution, best possible 27880 (268.79 seconds)
Cbc0010I After 2500 nodes, 17 on tree, 50176 best solution, best possible 27880 (276.69 seconds)
Cbc0010I After 2600 nodes, 17 on tree, 50176 best solution, best possible 27880 (284.91 seconds)
Cbc0010I After 2700 nodes, 17 on tree, 50176 best solution, best possible 27880 (293.33 seconds)
Cbc0010I After 2800 nodes, 17 on tree, 50176 best solution, best possible 27880 (301.06 seconds)
Cbc0010I After 2900 nodes, 17 on tree, 50176 best solution, best possible 27880 (309.06 seconds)
Cbc0038I Full problem 1808 rows 620 columns, reduced to 1347 rows 393 columns - 204 fixed gives 89, 23 - ok now
Cbc0010I After 3000 nodes, 17 on tree, 50176 best solution, best possible 27880 (317.25 seconds)
Cbc0010I After 3100 nodes, 17 on tree, 50176 best solution, best possible 27880 (325.46 seconds)
Cbc0010I After 3200 nodes, 17 on tree, 50176 best solution, best possible 27880 (333.63 seconds)
Cbc0010I After 3300 nodes, 17 on tree, 50176 best solution, best possible 27880 (341.65 seconds)
Cbc0010I After 3400 nodes, 17 on tree, 50176 best solution, best possible 27880 (349.66 seconds)
Cbc0010I After 3500 nodes, 17 on tree, 50176 best solution, best possible 27880 (357.73 seconds)
Cbc0038I Full problem 1808 rows 620 columns, reduced to 1343 rows 391 columns - 204 fixed gives 89, 23 - ok now
Cbc0010I After 3600 nodes, 17 on tree, 50176 best solution, best possible 27880 (366.52 seconds)
Cbc0010I After 3700 nodes, 17 on tree, 50176 best solution, best possible 27880 (375.45 seconds)
Cbc0010I After 3800 nodes, 17 on tree, 50176 best solution, best possible 27880 (384.17 seconds)
Cbc0010I After 3900 nodes, 17 on tree, 50176 best solution, best possible 27880 (392.43 seconds)
Cbc0010I After 4000 nodes, 17 on tree, 50176 best solution, best possible 27880 (401.17 seconds)
Cbc0010I After 4100 nodes, 17 on tree, 50176 best solution, best possible 27880 (410.33 seconds)
Cbc0038I Full problem 1808 rows 620 columns, reduced to 1333 rows 387 columns - 203 fixed gives 77, 21 - ok now
Cbc0010I After 4200 nodes, 17 on tree, 50176 best solution, best possible 27880 (419.81 seconds)
Cbc0010I After 4300 nodes, 17 on tree, 50176 best solution, best possible 27880 (428.66 seconds)
Cbc0010I After 4400 nodes, 17 on tree, 50176 best solution, best possible 27880 (437.62 seconds)
Cbc0010I After 4500 nodes, 17 on tree, 50176 best solution, best possible 27880 (446.56 seconds)
Cbc0010I After 4600 nodes, 17 on tree, 50176 best solution, best possible 27880 (455.65 seconds)
Cbc0010I After 4700 nodes, 17 on tree, 50176 best solution, best possible 27880 (464.49 seconds)
Cbc0038I Full problem 1808 rows 620 columns, reduced to 1324 rows 385 columns - 201 fixed gives 77, 21 - ok now
Cbc0010I After 4800 nodes, 17 on tree, 50176 best solution, best possible 27880 (474.02 seconds)
Cbc0010I After 4900 nodes, 17 on tree, 50176 best solution, best possible 27880 (481.78 seconds)
Cbc0010I After 5000 nodes, 17 on tree, 50176 best solution, best possible 27880 (488.91 seconds)
Cbc0010I After 5100 nodes, 16 on tree, 50176 best solution, best possible 27880 (495.71 seconds)
Cbc0010I After 5200 nodes, 16 on tree, 50176 best solution, best possible 27880 (503.05 seconds)
Cbc0010I After 5300 nodes, 16 on tree, 50176 best solution, best possible 27880 (510.81 seconds)
Cbc0038I Full problem 1808 rows 620 columns, reduced to 1326 rows 385 columns - 202 fixed gives 78, 21 - ok now
Cbc0010I After 5400 nodes, 16 on tree, 50176 best solution, best possible 27880 (518.31 seconds)
Cbc0010I After 5500 nodes, 16 on tree, 50176 best solution, best possible 27880 (525.90 seconds)
Cbc0010I After 5600 nodes, 16 on tree, 50176 best solution, best possible 27880 (533.36 seconds)
Cbc0010I After 5700 nodes, 16 on tree, 50176 best solution, best possible 27880 (541.16 seconds)
Cbc0010I After 5800 nodes, 16 on tree, 50176 best solution, best possible 27880 (548.72 seconds)
Cbc0010I After 5900 nodes, 16 on tree, 50176 best solution, best possible 27880 (556.29 seconds)
Cbc0038I Full problem 1808 rows 620 columns, reduced to 1320 rows 383 columns - 201 fixed gives 77, 21 - ok now
Cbc0010I After 6000 nodes, 16 on tree, 50176 best solution, best possible 27880 (564.10 seconds)
Cbc0010I After 6100 nodes, 16 on tree, 50176 best solution, best possible 27880 (571.61 seconds)
Cbc0010I After 6200 nodes, 16 on tree, 50176 best solution, best possible 27880 (578.83 seconds)
Cbc0010I After 6300 nodes, 16 on tree, 50176 best solution, best possible 27880 (586.13 seconds)
Cbc0010I After 6400 nodes, 16 on tree, 50176 best solution, best possible 27880 (593.55 seconds)
Cbc0010I After 6500 nodes, 16 on tree, 50176 best solution, best possible 27880 (600.84 seconds)
Cbc0038I Full problem 1808 rows 620 columns, reduced to 1320 rows 383 columns - 201 fixed gives 77, 21 - ok now
Cbc0010I After 6600 nodes, 16 on tree, 50176 best solution, best possible 27880 (608.41 seconds)
Cbc0010I After 6700 nodes, 16 on tree, 50176 best solution, best possible 27880 (615.80 seconds)
Cbc0010I After 6800 nodes, 16 on tree, 50176 best solution, best possible 27880 (622.97 seconds)
Cbc0010I After 6900 nodes, 16 on tree, 50176 best solution, best possible 27880 (630.29 seconds)
Cbc0010I After 7000 nodes, 16 on tree, 50176 best solution, best possible 27880 (637.70 seconds)
Cbc0010I After 7100 nodes, 17 on tree, 50176 best solution, best possible 27880 (645.13 seconds)
Cbc0038I Full problem 1808 rows 620 columns, reduced to 1320 rows 383 columns - 201 fixed gives 77, 21 - ok now
Cbc0010I After 7200 nodes, 16 on tree, 50176 best solution, best possible 27880 (652.55 seconds)
Cbc0010I After 7300 nodes, 16 on tree, 50176 best solution, best possible 27880 (659.85 seconds)
Cbc0010I After 7400 nodes, 16 on tree, 50176 best solution, best possible 27880 (667.73 seconds)
Cbc0010I After 7500 nodes, 16 on tree, 50176 best solution, best possible 27880 (674.81 seconds)
Cbc0010I After 7600 nodes, 16 on tree, 50176 best solution, best possible 27880 (682.94 seconds)
Cbc0010I After 7700 nodes, 16 on tree, 50176 best solution, best possible 27880 (690.55 seconds)
Cbc0010I After 7800 nodes, 16 on tree, 50176 best solution, best possible 27880 (698.61 seconds)
Cbc0010I After 7900 nodes, 16 on tree, 50176 best solution, best possible 27880 (706.58 seconds)
Cbc0010I After 8000 nodes, 16 on tree, 50176 best solution, best possible 27880 (714.18 seconds)
Cbc0010I After 8100 nodes, 16 on tree, 50176 best solution, best possible 27880 (721.79 seconds)
Cbc0010I After 8200 nodes, 17 on tree, 50176 best solution, best possible 27880 (729.84 seconds)
Cbc0010I After 8300 nodes, 16 on tree, 50176 best solution, best possible 27880 (737.69 seconds)
Cbc0010I After 8400 nodes, 16 on tree, 50176 best solution, best possible 27880 (746.00 seconds)
Cbc0010I After 8500 nodes, 16 on tree, 50176 best solution, best possible 27880 (753.74 seconds)
Cbc0010I After 8600 nodes, 17 on tree, 50176 best solution, best possible 27880 (762.02 seconds)
Cbc0010I After 8700 nodes, 16 on tree, 50176 best solution, best possible 27880 (770.00 seconds)
Cbc0010I After 8800 nodes, 16 on tree, 50176 best solution, best possible 27880 (777.90 seconds)
Cbc0010I After 8900 nodes, 16 on tree, 50176 best solution, best possible 27880 (785.59 seconds)
Cbc0010I After 9000 nodes, 16 on tree, 50176 best solution, best possible 27880 (793.25 seconds)
Cbc0010I After 9100 nodes, 15 on tree, 50176 best solution, best possible 27880 (800.43 seconds)
Cbc0010I After 9200 nodes, 15 on tree, 50176 best solution, best possible 27880 (807.85 seconds)
Cbc0010I After 9300 nodes, 15 on tree, 50176 best solution, best possible 27880 (815.36 seconds)
Cbc0010I After 9400 nodes, 15 on tree, 50176 best solution, best possible 27880 (823.18 seconds)
Cbc0010I After 9500 nodes, 15 on tree, 50176 best solution, best possible 27880 (830.79 seconds)
Cbc0010I After 9600 nodes, 15 on tree, 50176 best solution, best possible 27880 (838.48 seconds)
Cbc0010I After 9700 nodes, 15 on tree, 50176 best solution, best possible 27880 (846.48 seconds)
Cbc0010I After 9800 nodes, 15 on tree, 50176 best solution, best possible 27880 (853.61 seconds)
Cbc0010I After 9900 nodes, 15 on tree, 50176 best solution, best possible 27880 (860.77 seconds)
Cbc0010I After 10000 nodes, 16 on tree, 50176 best solution, best possible 27880 (868.62 seconds)
Cbc0010I After 10100 nodes, 15 on tree, 50176 best solution, best possible 27880 (875.93 seconds)
Cbc0010I After 10200 nodes, 15 on tree, 50176 best solution, best possible 27880 (883.15 seconds)
Cbc0010I After 10300 nodes, 15 on tree, 50176 best solution, best possible 27880 (890.56 seconds)
Cbc0010I After 10400 nodes, 15 on tree, 50176 best solution, best possible 27880 (897.85 seconds)
Cbc0010I After 10500 nodes, 16 on tree, 50176 best solution, best possible 27880 (905.38 seconds)
Cbc0010I After 10600 nodes, 16 on tree, 50176 best solution, best possible 27880 (912.63 seconds)
Cbc0010I After 10700 nodes, 15 on tree, 50176 best solution, best possible 27880 (919.88 seconds)
Cbc0038I Full problem 1808 rows 620 columns, reduced to 1308 rows 380 columns - 196 fixed gives 77, 21 - ok now
Cbc0010I After 10800 nodes, 15 on tree, 50176 best solution, best possible 27880 (928.09 seconds)
Cbc0010I After 10900 nodes, 15 on tree, 50176 best solution, best possible 27880 (935.78 seconds)
Cbc0010I After 11000 nodes, 15 on tree, 50176 best solution, best possible 27880 (943.63 seconds)
Cbc0010I After 11100 nodes, 1 on tree, 50176 best solution, best possible 32478 (951.29 seconds)
Cbc0010I After 11200 nodes, 1 on tree, 50176 best solution, best possible 32523 (959.61 seconds)
Cbc0010I After 11300 nodes, 1 on tree, 50176 best solution, best possible 32568 (967.90 seconds)
Cbc0010I After 11400 nodes, 1 on tree, 50176 best solution, best possible 32612 (975.94 seconds)
Cbc0010I After 11500 nodes, 1 on tree, 50176 best solution, best possible 32654 (983.65 seconds)
Cbc0010I After 11600 nodes, 1 on tree, 50176 best solution, best possible 32698 (991.30 seconds)
Cbc0010I After 11700 nodes, 1 on tree, 50176 best solution, best possible 32743 (999.07 seconds)
Cbc0010I After 11800 nodes, 1 on tree, 50176 best solution, best possible 32787 (1007.43 seconds)
Cbc0010I After 11900 nodes, 1 on tree, 50176 best solution, best possible 32832 (1015.66 seconds)
Cbc0010I After 12000 nodes, 1 on tree, 50176 best solution, best possible 32873 (1023.93 seconds)
Cbc0010I After 12100 nodes, 2 on tree, 50176 best solution, best possible 32916 (1032.23 seconds)
Cbc0010I After 12200 nodes, 1 on tree, 50176 best solution, best possible 32960 (1040.57 seconds)
Cbc0010I After 12300 nodes, 1 on tree, 50176 best solution, best possible 33001 (1048.71 seconds)
Cbc0010I After 12400 nodes, 2 on tree, 50176 best solution, best possible 33044 (1056.81 seconds)
Cbc0010I After 12500 nodes, 1 on tree, 50176 best solution, best possible 33086 (1064.73 seconds)
Cbc0010I After 12600 nodes, 1 on tree, 50176 best solution, best possible 33128 (1073.05 seconds)
Cbc0010I After 12700 nodes, 1 on tree, 50176 best solution, best possible 33169 (1081.59 seconds)
Cbc0010I After 12800 nodes, 1 on tree, 50176 best solution, best possible 33210 (1090.05 seconds)
Cbc0010I After 12900 nodes, 1 on tree, 50176 best solution, best possible 33249 (1098.00 seconds)
Cbc0010I After 13000 nodes, 1 on tree, 50176 best solution, best possible 33289 (1105.96 seconds)
Cbc0010I After 13100 nodes, 1 on tree, 50176 best solution, best possible 33329 (1114.38 seconds)
Cbc0010I After 13200 nodes, 1 on tree, 50176 best solution, best possible 33371 (1123.05 seconds)
Cbc0010I After 13300 nodes, 1 on tree, 50176 best solution, best possible 33411 (1131.57 seconds)
Cbc0010I After 13400 nodes, 1 on tree, 50176 best solution, best possible 33451 (1139.93 seconds)
Cbc0010I After 13500 nodes, 1 on tree, 50176 best solution, best possible 33490 (1148.11 seconds)
Cbc0010I After 13600 nodes, 1 on tree, 50176 best solution, best possible 33531 (1156.40 seconds)
Cbc0010I After 13700 nodes, 1 on tree, 50176 best solution, best possible 33570 (1164.53 seconds)
Cbc0010I After 13800 nodes, 3 on tree, 50176 best solution, best possible 33608 (1173.02 seconds)
Cbc0010I After 13900 nodes, 1 on tree, 50176 best solution, best possible 33646 (1180.93 seconds)
Cbc0010I After 14000 nodes, 1 on tree, 50176 best solution, best possible 33681 (1188.52 seconds)
Cbc0010I After 14100 nodes, 1 on tree, 50176 best solution, best possible 33717 (1196.27 seconds)
Cbc0010I After 14200 nodes, 2 on tree, 50176 best solution, best possible 33752 (1203.93 seconds)
Cbc0010I After 14300 nodes, 1 on tree, 50176 best solution, best possible 33789 (1211.36 seconds)
Cbc0010I After 14400 nodes, 1 on tree, 50176 best solution, best possible 33822 (1220.86 seconds)
Cbc0010I After 14500 nodes, 1 on tree, 50176 best solution, best possible 33858 (1230.69 seconds)
Cbc0010I After 14600 nodes, 1 on tree, 50176 best solution, best possible 33894 (1241.01 seconds)
Cbc0010I After 14700 nodes, 1 on tree, 50176 best solution, best possible 33928 (1251.28 seconds)
Cbc0010I After 14800 nodes, 1 on tree, 50176 best solution, best possible 33961 (1261.16 seconds)
Cbc0010I After 14900 nodes, 1 on tree, 50176 best solution, best possible 33995 (1271.08 seconds)
Cbc0010I After 15000 nodes, 2 on tree, 50176 best solution, best possible 34028 (1281.06 seconds)
Cbc0010I After 15100 nodes, 1 on tree, 50176 best solution, best possible 34063 (1290.40 seconds)
Cbc0010I After 15200 nodes, 1 on tree, 50176 best solution, best possible 34097 (1299.74 seconds)
Cbc0010I After 15300 nodes, 1 on tree, 50176 best solution, best possible 34129 (1308.75 seconds)
Cbc0010I After 15400 nodes, 1 on tree, 50176 best solution, best possible 34162 (1317.91 seconds)
Cbc0010I After 15500 nodes, 2 on tree, 50176 best solution, best possible 34196 (1327.19 seconds)
Cbc0010I After 15600 nodes, 2 on tree, 50176 best solution, best possible 34228 (1335.96 seconds)
Cbc0010I After 15700 nodes, 1 on tree, 50176 best solution, best possible 34264 (1345.17 seconds)
Cbc0010I After 15800 nodes, 1 on tree, 50176 best solution, best possible 34303 (1354.83 seconds)
Cbc0010I After 15900 nodes, 1 on tree, 50176 best solution, best possible 34341 (1364.65 seconds)
Cbc0010I After 16000 nodes, 1 on tree, 50176 best solution, best possible 34380 (1374.59 seconds)
Cbc0010I After 16100 nodes, 1 on tree, 50176 best solution, best possible 34419 (1384.34 seconds)
Cbc0010I After 16200 nodes, 1 on tree, 50176 best solution, best possible 34456 (1394.13 seconds)
Cbc0010I After 16300 nodes, 1 on tree, 50176 best solution, best possible 34495 (1403.88 seconds)
Cbc0010I After 16400 nodes, 1 on tree, 50176 best solution, best possible 34534 (1413.72 seconds)
Cbc0010I After 16500 nodes, 1 on tree, 50176 best solution, best possible 34573 (1423.41 seconds)
Cbc0010I After 16600 nodes, 1 on tree, 50176 best solution, best possible 34611 (1433.32 seconds)
Cbc0010I After 16700 nodes, 1 on tree, 50176 best solution, best possible 34650 (1443.20 seconds)
Cbc0010I After 16800 nodes, 1 on tree, 50176 best solution, best possible 34690 (1453.04 seconds)
Cbc0010I After 16900 nodes, 2 on tree, 50176 best solution, best possible 34728 (1463.07 seconds)
Cbc0010I After 17000 nodes, 1 on tree, 50176 best solution, best possible 34768 (1472.77 seconds)
Cbc0010I After 17100 nodes, 2 on tree, 50176 best solution, best possible 34768 (1482.59 seconds)
Cbc0010I After 17200 nodes, 4 on tree, 50176 best solution, best possible 34768 (1494.82 seconds)
Cbc0010I After 17300 nodes, 4 on tree, 50176 best solution, best possible 34768 (1506.23 seconds)
Cbc0010I After 17400 nodes, 2 on tree, 50176 best solution, best possible 34768 (1515.53 seconds)
Cbc0010I After 17500 nodes, 3 on tree, 50176 best solution, best possible 34768 (1524.39 seconds)
Cbc0010I After 17600 nodes, 4 on tree, 50176 best solution, best possible 34768 (1533.22 seconds)
Cbc0010I After 17700 nodes, 4 on tree, 50176 best solution, best possible 34768 (1541.73 seconds)
Cbc0010I After 17800 nodes, 4 on tree, 50176 best solution, best possible 34768 (1550.42 seconds)
Cbc0010I After 17900 nodes, 2 on tree, 50176 best solution, best possible 34768 (1559.33 seconds)
Cbc0038I Full problem 1808 rows 620 columns, reduced to 1302 rows 380 columns - 189 fixed gives 61, 17 - ok now
Cbc0010I After 18000 nodes, 4 on tree, 50176 best solution, best possible 34768 (1568.54 seconds)
Cbc0010I After 18100 nodes, 2 on tree, 50176 best solution, best possible 34961 (1577.42 seconds)
Cbc0010I After 18200 nodes, 3 on tree, 50176 best solution, best possible 34980 (1586.63 seconds)
Cbc0010I After 18300 nodes, 2 on tree, 50176 best solution, best possible 34997 (1594.71 seconds)
Cbc0010I After 18400 nodes, 1 on tree, 50176 best solution, best possible 35014 (1603.02 seconds)
Cbc0010I After 18500 nodes, 1 on tree, 50176 best solution, best possible 35031 (1611.45 seconds)
Cbc0010I After 18600 nodes, 2 on tree, 50176 best solution, best possible 35046 (1619.53 seconds)
Cbc0010I After 18700 nodes, 1 on tree, 50176 best solution, best possible 35062 (1627.23 seconds)
Cbc0010I After 18800 nodes, 1 on tree, 50176 best solution, best possible 35079 (1635.85 seconds)
Cbc0010I After 18900 nodes, 3 on tree, 50176 best solution, best possible 35096 (1645.25 seconds)
Cbc0010I After 19000 nodes, 2 on tree, 50176 best solution, best possible 35112 (1653.60 seconds)
Cbc0010I After 19100 nodes, 2 on tree, 50176 best solution, best possible 35128 (1661.87 seconds)
Cbc0010I After 19200 nodes, 1 on tree, 50176 best solution, best possible 35145 (1670.04 seconds)
Cbc0010I After 19300 nodes, 1 on tree, 50176 best solution, best possible 35162 (1678.67 seconds)
Cbc0010I After 19400 nodes, 1 on tree, 50176 best solution, best possible 35179 (1686.95 seconds)
Cbc0010I After 19500 nodes, 1 on tree, 50176 best solution, best possible 35194 (1694.86 seconds)
Cbc0010I After 19600 nodes, 1 on tree, 50176 best solution, best possible 35210 (1703.08 seconds)
Cbc0010I After 19700 nodes, 3 on tree, 50176 best solution, best possible 35225 (1711.48 seconds)
Cbc0010I After 19800 nodes, 1 on tree, 50176 best solution, best possible 35241 (1719.23 seconds)
Cbc0010I After 19900 nodes, 3 on tree, 50176 best solution, best possible 35257 (1727.32 seconds)
Cbc0010I After 20000 nodes, 2 on tree, 50176 best solution, best possible 35274 (1735.67 seconds)
Cbc0010I After 20100 nodes, 1 on tree, 50176 best solution, best possible 35289 (1743.43 seconds)
Cbc0010I After 20200 nodes, 2 on tree, 50176 best solution, best possible 35304 (1751.69 seconds)
Cbc0010I After 20300 nodes, 3 on tree, 50176 best solution, best possible 35319 (1759.37 seconds)
Cbc0010I After 20400 nodes, 1 on tree, 50176 best solution, best possible 35334 (1767.26 seconds)
Cbc0010I After 20500 nodes, 2 on tree, 50176 best solution, best possible 35348 (1775.16 seconds)
Cbc0010I After 20600 nodes, 2 on tree, 50176 best solution, best possible 35361 (1782.57 seconds)
Cbc0010I After 20700 nodes, 1 on tree, 50176 best solution, best possible 35376 (1790.25 seconds)
Cbc0010I After 20800 nodes, 3 on tree, 50176 best solution, best possible 35390 (1798.12 seconds)
Cbc0020I Exiting on maximum time
Cbc0005I Partial search - best objective 50176 (best possible 35390), took 11433706 iterations and 20825 nodes (1799.99 seconds)
Cbc0032I Strong branching done 50512 times (3635032 iterations), fathomed 7012 nodes and fixed 6853 variables
Cbc0035I Maximum depth 7747, 0 variables fixed on reduced cost
Cuts at root node changed objective from 27648 to 27648
Probing was tried 10 times and created 65 cuts of which 0 were active after adding rounds of cuts (0.037 seconds)
Gomory was tried 10 times and created 180 cuts of which 0 were active after adding rounds of cuts (0.150 seconds)
Knapsack was tried 10 times and created 0 cuts of which 0 were active after adding rounds of cuts (0.007 seconds)
Clique was tried 10 times and created 0 cuts of which 0 were active after adding rounds of cuts (0.005 seconds)
MixedIntegerRounding2 was tried 10 times and created 0 cuts of which 0 were active after adding rounds of cuts (0.008 seconds)
FlowCover was tried 10 times and created 0 cuts of which 0 were active after adding rounds of cuts (0.006 seconds)
TwoMirCuts was tried 10 times and created 120 cuts of which 0 were active after adding rounds of cuts (0.121 seconds)
ZeroHalf was tried 1 times and created 0 cuts of which 0 were active after adding rounds of cuts (0.010 seconds)

Result - Stopped on time limit

Objective value:                50176.00000000
Lower bound:                    35390.000
Gap:                            0.42
Enumerated nodes:               20825
Total iterations:               11433706
Time (CPU seconds):             1800.03
Time (Wallclock seconds):       1818.93

Total time (CPU seconds):       1800.04   (Wallclock seconds):       1818.94

